 
data_04182 
 
_audit_creation_method            SHELXL-97 
_chemical_name_systematic 
; 
 ? 
; 
_chemical_name_common             04182 
_chemical_melting_point           ? 
_chemical_formula_moiety          'C12 H11 F6 N S4 W' 
_chemical_formula_sum             'C12 H11 F6 N S4 W' 
_chemical_formula_weight          595.31 
 
loop_ 
 _atom_type_symbol 
 _atom_type_description 
 _atom_type_scat_dispersion_real 
 _atom_type_scat_dispersion_imag 
 _atom_type_scat_source 
 'C'  'C'   0.0033   0.0016 
 'International Tables Vol C Tables 4.2.6.8 and 6.1.1.4' 
 'H'  'H'   0.0000   0.0000 
 'International Tables Vol C Tables 4.2.6.8 and 6.1.1.4' 
 'N'  'N'   0.0061   0.0033 
 'International Tables Vol C Tables 4.2.6.8 and 6.1.1.4' 
 'F'  'F'   0.0171   0.0103 
 'International Tables Vol C Tables 4.2.6.8 and 6.1.1.4' 
 'S'  'S'   0.1246   0.1234 
 'International Tables Vol C Tables 4.2.6.8 and 6.1.1.4' 
 'W'  'W'  -0.8490   6.8722 
 'International Tables Vol C Tables 4.2.6.8 and 6.1.1.4' 
 
_symmetry_cell_setting            triclinic 
_symmetry_space_group_name_H-M    P-1 
 
loop_ 
 _symmetry_equiv_pos_as_xyz 
 'x, y, z' 
 '-x, -y, -z' 
 
_cell_length_a                    7.402(1) 
_cell_length_b                    10.2198(14) 
_cell_length_c                    12.619(2) 
_cell_angle_alpha                 101.894(2) 
_cell_angle_beta                  92.110(2) 
_cell_angle_gamma                 110.817(2) 
_cell_volume                      866.7(2) 
_cell_formula_units_Z             2 
_cell_measurement_temperature     173(2) 
_cell_measurement_reflns_used     2197 
_cell_measurement_theta_min       ? 
_cell_measurement_theta_max       ? 
 
_exptl_crystal_description        plate 
_exptl_crystal_colour             green 
_exptl_crystal_size_max           0.24 
_exptl_crystal_size_mid           0.18 
_exptl_crystal_size_min           0.07 
_exptl_crystal_density_meas       ? 
_exptl_crystal_density_diffrn     2.281 
_exptl_crystal_density_method     'not measured' 
_exptl_crystal_F_000              564 
_exptl_absorpt_coefficient_mu     7.200 
_exptl_absorpt_correction_type    multi-scan 
_exptl_absorpt_correction_T_min   0.2769 
_exptl_absorpt_correction_T_max   0.6326 
_exptl_absorpt_process_details    'SADABS, R. Blessing, 1995' 
 
_exptl_special_details 
; 
 ? 
; 
 
_diffrn_ambient_temperature       173(2) 
_diffrn_radiation_wavelength      0.71073 
_diffrn_radiation_type            MoK\a 
_diffrn_radiation_source          'normal-focus sealed tube' 
_diffrn_radiation_monochromator   graphite 
_diffrn_measurement_device_type   'Siemens SMART Platform CCD' 
_diffrn_measurement_method        'area detector, omega scans per phi' 
_diffrn_detector_area_resol_mean  ? 
_diffrn_standards_number          ? 
_diffrn_standards_interval_count  ? 
_diffrn_standards_interval_time   ? 
_diffrn_standards_decay_%         ? 
_diffrn_reflns_number             10380 
_diffrn_reflns_av_R_equivalents   0.0301 
_diffrn_reflns_av_sigmaI/netI     0.0359 
_diffrn_reflns_limit_h_min        -9 
_diffrn_reflns_limit_h_max        9 
_diffrn_reflns_limit_k_min        -13 
_diffrn_reflns_limit_k_max        13 
_diffrn_reflns_limit_l_min        -16 
_diffrn_reflns_limit_l_max        16 
_diffrn_reflns_theta_min          1.66 
_diffrn_reflns_theta_max          27.50 
_reflns_number_total              3947 
_reflns_number_gt                 3656 
_reflns_threshold_expression      >2sigma(I) 
 
_computing_data_collection        'SMART, Bruker' 
_computing_cell_refinement        'SAINT, Bruker' 
_computing_data_reduction         'SAINT, Bruker' 
_computing_structure_solution     'SHELXS-97 (Sheldrick, 1997)' 
_computing_structure_refinement   'SHELXL-97 (Sheldrick, 1997)' 
_computing_molecular_graphics     'SHELXTL, Bruker' 
_computing_publication_material   ? 
 
_refine_special_details 
; 
 Refinement of F^2^ against ALL reflections.  The weighted R-factor wR and 
 goodness of fit S are based on F^2^, conventional R-factors R are based 
 on F, with F set to zero for negative F^2^. The threshold expression of 
 F^2^ > 2sigma(F^2^) is used only for calculating R-factors(gt) etc. and is 
 not relevant to the choice of reflections for refinement.  R-factors based 
 on F^2^ are statistically about twice as large as those based on F, and R- 
 factors based on ALL data will be even larger. 
; 
 
_refine_ls_structure_factor_coef  Fsqd  
_refine_ls_matrix_type            full 
_refine_ls_weighting_scheme       calc  
_refine_ls_weighting_details 
 'calc w=1/[\s^2^(Fo^2^)+(0.0190P)^2^+1.4934P] where P=(Fo^2^+2Fc^2^)/3' 
_atom_sites_solution_primary      direct 
_atom_sites_solution_secondary    difmap 
_atom_sites_solution_hydrogens    geom 
_refine_ls_hydrogen_treatment     constr 
_refine_ls_extinction_method      none 
_refine_ls_extinction_coef        ? 
_refine_ls_number_reflns          3947 
_refine_ls_number_parameters      247 
_refine_ls_number_restraints      30 
_refine_ls_R_factor_all           0.0286 
_refine_ls_R_factor_gt            0.0245 
_refine_ls_wR_factor_ref          0.0533 
_refine_ls_wR_factor_gt           0.0520 
_refine_ls_goodness_of_fit_ref    1.037 
_refine_ls_restrained_S_all       1.042 
_refine_ls_shift/su_max           0.000 
_refine_ls_shift/su_mean          0.000 
 
loop_ 
 _atom_site_label 
 _atom_site_type_symbol 
 _atom_site_fract_x 
 _atom_site_fract_y 
 _atom_site_fract_z 
 _atom_site_U_iso_or_equiv 
 _atom_site_adp_type 
 _atom_site_occupancy 
 _atom_site_symmetry_multiplicity 
 _atom_site_calc_flag 
 _atom_site_refinement_flags 
 _atom_site_disorder_assembly 
 _atom_site_disorder_group 
W1 W 0.18493(2) 0.403429(16) 0.194850(13) 0.01788(5) Uani 1 1 d . . . 
S1 S 0.39794(14) 0.60684(10) 0.14566(9) 0.0236(2) Uani 1 1 d . . . 
S1A S 0.05697(14) 0.56843(10) 0.28358(8) 0.0225(2) Uani 1 1 d . A . 
S2 S 0.48595(15) 0.36778(11) 0.24283(9) 0.0250(2) Uani 1 1 d . . . 
S2A S 0.17070(15) 0.33176(11) 0.37000(8) 0.0241(2) Uani 1 1 d . . . 
C1 C 0.4446(7) 0.8898(5) 0.1615(4) 0.0346(10) Uani 1 1 d U . . 
F1 F 0.5738(5) 0.9821(3) 0.2419(3) 0.0735(11) Uani 1 1 d U . . 
F2 F 0.3384(5) 0.9603(3) 0.1307(3) 0.0659(10) Uani 1 1 d U . . 
F3 F 0.5387(6) 0.8669(4) 0.0760(3) 0.0785(12) Uani 1 1 d U . . 
C1A C 0.1044(7) 0.8516(5) 0.3056(4) 0.0334(10) Uani 0.799(9) 1 d PD A 1 
F1A F 0.2504(7) 0.9819(4) 0.3380(5) 0.0649(18) Uani 0.799(9) 1 d PDU A 1 
F2A F -0.0275(10) 0.8665(7) 0.2430(4) 0.074(2) Uani 0.799(9) 1 d PDU A 1 
F3A F 0.0298(9) 0.8288(6) 0.3974(4) 0.0554(16) Uani 0.799(9) 1 d PDU A 1 
C1A' C 0.1044(7) 0.8516(5) 0.3056(4) 0.0334(10) Uani 0.201(9) 1 d PD A 5 
F1A' F 0.157(3) 0.9660(16) 0.262(2) 0.067(6) Uani 0.201(9) 1 d PDU A 5 
F2A' F -0.0923(19) 0.7987(18) 0.2859(18) 0.054(5) Uani 0.201(9) 1 d PDU A 5 
F3A' F 0.142(4) 0.894(3) 0.4091(12) 0.069(6) Uani 0.201(9) 1 d PDU A 5 
C2 C 0.3246(6) 0.7523(4) 0.1908(3) 0.0225(8) Uani 1 1 d . A . 
C2A C 0.1768(6) 0.7358(4) 0.2534(3) 0.0226(8) Uani 1 1 d . . . 
C3 C 0.4002(6) 0.3246(4) 0.3619(3) 0.0240(8) Uani 1 1 d . . . 
N1 N 0.4997(5) 0.2976(4) 0.4375(3) 0.0265(8) Uani 1 1 d . . . 
C4 C 0.6947(7) 0.2966(5) 0.4256(4) 0.0339(10) Uani 1 1 d . . . 
H4A H 0.7329 0.3187 0.3559 0.051 Uiso 0.50 1 calc PR . . 
H4B H 0.6949 0.2013 0.4275 0.051 Uiso 0.50 1 calc PR . . 
H4C H 0.7872 0.3692 0.4855 0.051 Uiso 0.50 1 calc PR . . 
H4D H 0.7437 0.2741 0.4901 0.051 Uiso 0.50 1 calc PR . . 
H4E H 0.7817 0.3915 0.4184 0.051 Uiso 0.50 1 calc PR . . 
H4F H 0.6894 0.2235 0.3604 0.051 Uiso 0.50 1 calc PR . . 
C4A C 0.4156(7) 0.2642(5) 0.5375(4) 0.0349(10) Uani 1 1 d . . . 
H4AA H 0.2743 0.2385 0.5264 0.052 Uiso 0.50 1 calc PR . . 
H4AB H 0.4730 0.3487 0.5985 0.052 Uiso 0.50 1 calc PR . . 
H4AC H 0.4436 0.1833 0.5540 0.052 Uiso 0.50 1 calc PR . . 
H4AD H 0.5196 0.2752 0.5929 0.052 Uiso 0.50 1 calc PR . . 
H4AE H 0.3209 0.1649 0.5207 0.052 Uiso 0.50 1 calc PR . . 
H4AF H 0.3503 0.3304 0.5653 0.052 Uiso 0.50 1 calc PR . . 
C5 C -0.0323(7) 0.3277(5) 0.0464(4) 0.0332(10) Uani 1 1 d . . . 
H5A H -0.0857 0.3897 0.0137 0.040 Uiso 1 1 calc R . . 
C6 C 0.1267(7) 0.2873(5) 0.0115(4) 0.0358(11) Uani 1 1 d . . . 
H6A H 0.2074 0.3194 -0.0469 0.043 Uiso 1 1 calc R . . 
C6A C -0.1209(6) 0.2456(4) 0.1223(4) 0.0283(9) Uani 1 1 d . . . 
H6AA H -0.2449 0.2411 0.1532 0.034 Uiso 1 1 calc R . . 
C7 C 0.1312(7) 0.1795(5) 0.0655(4) 0.0341(10) Uani 1 1 d . . . 
H7A H 0.2247 0.1286 0.0564 0.041 Uiso 1 1 calc R . . 
C7A C -0.0156(7) 0.1556(4) 0.1323(4) 0.0310(10) Uani 1 1 d . . . 
H7AA H -0.0465 0.0831 0.1780 0.037 Uiso 1 1 calc R . . 
 
loop_ 
 _atom_site_aniso_label 
 _atom_site_aniso_U_11 
 _atom_site_aniso_U_22 
 _atom_site_aniso_U_33 
 _atom_site_aniso_U_23 
 _atom_site_aniso_U_13 
 _atom_site_aniso_U_12 
W1 0.01753(8) 0.01669(8) 0.01942(9) 0.00499(6) 0.00238(6) 0.00590(6) 
S1 0.0222(5) 0.0204(5) 0.0283(5) 0.0084(4) 0.0072(4) 0.0061(4) 
S1A 0.0221(5) 0.0199(5) 0.0267(5) 0.0064(4) 0.0067(4) 0.0083(4) 
S2 0.0220(5) 0.0314(5) 0.0266(5) 0.0107(4) 0.0060(4) 0.0134(4) 
S2A 0.0231(5) 0.0296(5) 0.0242(5) 0.0111(4) 0.0059(4) 0.0123(4) 
C1 0.042(3) 0.020(2) 0.038(3) 0.0099(18) 0.0102(18) 0.0062(17) 
F1 0.072(2) 0.0417(19) 0.069(2) 0.0185(16) -0.0158(18) -0.0254(16) 
F2 0.074(2) 0.0389(18) 0.095(3) 0.0414(19) 0.0083(19) 0.0188(16) 
F3 0.108(3) 0.0405(18) 0.096(3) 0.0334(18) 0.072(2) 0.0229(19) 
C1A 0.042(3) 0.025(2) 0.036(3) 0.0086(19) 0.008(2) 0.014(2) 
F1A 0.063(3) 0.025(2) 0.084(4) -0.015(2) 0.026(3) 0.002(2) 
F2A 0.106(5) 0.082(5) 0.058(3) -0.007(3) -0.021(3) 0.081(4) 
F3A 0.084(4) 0.045(3) 0.058(3) 0.019(2) 0.043(3) 0.041(3) 
C1A' 0.042(3) 0.025(2) 0.036(3) 0.0086(19) 0.008(2) 0.014(2) 
F1A' 0.063(11) 0.016(7) 0.121(15) 0.015(9) 0.010(11) 0.015(7) 
F2A' 0.064(10) 0.049(9) 0.071(12) 0.016(8) 0.011(8) 0.047(8) 
F3A' 0.110(15) 0.070(13) 0.034(9) -0.018(9) -0.015(11) 0.062(11) 
C2 0.025(2) 0.0193(19) 0.022(2) 0.0058(16) 0.0018(16) 0.0072(16) 
C2A 0.025(2) 0.0179(18) 0.024(2) 0.0047(16) -0.0010(16) 0.0075(16) 
C3 0.027(2) 0.0186(19) 0.026(2) 0.0055(16) 0.0009(17) 0.0087(16) 
N1 0.0287(19) 0.0257(18) 0.0247(19) 0.0042(15) -0.0030(15) 0.0111(15) 
C4 0.032(2) 0.043(3) 0.031(2) 0.006(2) -0.001(2) 0.021(2) 
C4A 0.036(3) 0.041(3) 0.026(2) 0.010(2) 0.000(2) 0.011(2) 
C5 0.039(3) 0.025(2) 0.029(2) 0.0052(18) -0.013(2) 0.0064(19) 
C6 0.035(3) 0.031(2) 0.023(2) -0.0016(18) 0.0087(19) -0.0052(19) 
C6A 0.022(2) 0.024(2) 0.034(2) 0.0011(18) -0.0002(18) 0.0054(17) 
C7 0.031(2) 0.026(2) 0.038(3) -0.0094(19) -0.005(2) 0.0115(19) 
C7A 0.038(3) 0.018(2) 0.030(2) 0.0026(17) -0.0043(19) 0.0053(18) 
 
_geom_special_details 
; 
 All esds (except the esd in the dihedral angle between two l.s. planes) 
 are estimated using the full covariance matrix.  The cell esds are taken 
 into account individually in the estimation of esds in distances, angles 
 and torsion angles; correlations between esds in cell parameters are only 
 used when they are defined by crystal symmetry.  An approximate (isotropic) 
 treatment of cell esds is used for estimating esds involving l.s. planes. 
; 
 
loop_ 
 _geom_bond_atom_site_label_1 
 _geom_bond_atom_site_label_2 
 _geom_bond_distance 
 _geom_bond_site_symmetry_2 
 _geom_bond_publ_flag 
W1 C5 2.234(4) . ? 
W1 C6A 2.282(4) . ? 
W1 C6 2.320(4) . ? 
W1 S1A 2.3301(10) . ? 
W1 S1 2.3382(10) . ? 
W1 C7A 2.378(4) . ? 
W1 C7 2.414(4) . ? 
W1 S2 2.4559(10) . ? 
W1 S2A 2.4621(11) . ? 
S1 C2 1.753(4) . ? 
S1A C2A 1.753(4) . ? 
S2 C3 1.732(4) . ? 
S2A C3 1.732(4) . ? 
C1 F1 1.314(6) . ? 
C1 F3 1.330(6) . ? 
C1 F2 1.335(6) . ? 
C1 C2 1.502(6) . ? 
C1A F2A 1.304(6) . ? 
C1A F3A 1.329(6) . ? 
C1A F1A 1.352(6) . ? 
C1A C2A 1.508(6) . ? 
C2 C2A 1.356(6) . ? 
C3 N1 1.316(5) . ? 
N1 C4 1.460(6) . ? 
N1 C4A 1.476(6) . ? 
C4 H4A 0.9800 . ? 
C4 H4B 0.9800 . ? 
C4 H4C 0.9800 . ? 
C4 H4D 0.9800 . ? 
C4 H4E 0.9800 . ? 
C4 H4F 0.9800 . ? 
C4A H4AA 0.9800 . ? 
C4A H4AB 0.9800 . ? 
C4A H4AC 0.9800 . ? 
C4A H4AD 0.9800 . ? 
C4A H4AE 0.9800 . ? 
C4A H4AF 0.9800 . ? 
C5 C6A 1.428(6) . ? 
C5 C6 1.435(7) . ? 
C5 H5A 1.0000 . ? 
C6 C7 1.419(7) . ? 
C6 H6A 1.0000 . ? 
C6A C7A 1.421(6) . ? 
C6A H6AA 1.0000 . ? 
C7 C7A 1.384(7) . ? 
C7 H7A 1.0000 . ? 
C7A H7AA 1.0000 . ? 
 
loop_ 
 _geom_angle_atom_site_label_1 
 _geom_angle_atom_site_label_2 
 _geom_angle_atom_site_label_3 
 _geom_angle 
 _geom_angle_site_symmetry_1 
 _geom_angle_site_symmetry_3 
 _geom_angle_publ_flag 
C5 W1 C6A 36.85(16) . . ? 
C5 W1 C6 36.68(18) . . ? 
C6A W1 C6 60.52(16) . . ? 
C5 W1 S1A 93.81(13) . . ? 
C6A W1 S1A 90.38(11) . . ? 
C6 W1 S1A 127.77(14) . . ? 
C5 W1 S1 96.41(12) . . ? 
C6A W1 S1 132.29(12) . . ? 
C6 W1 S1 87.49(11) . . ? 
S1A W1 S1 82.39(4) . . ? 
C5 W1 C7A 59.25(16) . . ? 
C6A W1 C7A 35.43(15) . . ? 
C6 W1 C7A 58.07(16) . . ? 
S1A W1 C7A 120.58(12) . . ? 
S1 W1 C7A 145.31(12) . . ? 
C5 W1 C7 58.93(16) . . ? 
C6A W1 C7 58.32(15) . . ? 
C6 W1 C7 34.83(17) . . ? 
S1A W1 C7 148.35(11) . . ? 
S1 W1 C7 114.09(12) . . ? 
C7A W1 C7 33.55(16) . . ? 
C5 W1 S2 135.08(13) . . ? 
C6A W1 S2 132.25(11) . . ? 
C6 W1 S2 98.79(13) . . ? 
S1A W1 S2 130.30(4) . . ? 
S1 W1 S2 83.53(4) . . ? 
C7A W1 S2 96.82(11) . . ? 
C7 W1 S2 80.03(11) . . ? 
C5 W1 S2A 131.70(12) . . ? 
C6A W1 S2A 94.86(12) . . ? 
C6 W1 S2A 136.45(12) . . ? 
S1A W1 S2A 83.61(4) . . ? 
S1 W1 S2A 130.57(4) . . ? 
C7A W1 S2A 80.79(11) . . ? 
C7 W1 S2A 102.20(13) . . ? 
S2 W1 S2A 70.54(3) . . ? 
C2 S1 W1 109.21(14) . . ? 
C2A S1A W1 109.32(14) . . ? 
C3 S2 W1 89.77(14) . . ? 
C3 S2A W1 89.55(14) . . ? 
F1 C1 F3 107.7(4) . . ? 
F1 C1 F2 105.9(4) . . ? 
F3 C1 F2 103.7(4) . . ? 
F1 C1 C2 113.3(4) . . ? 
F3 C1 C2 112.2(4) . . ? 
F2 C1 C2 113.3(4) . . ? 
F2A C1A F3A 107.1(5) . . ? 
F2A C1A F1A 107.2(5) . . ? 
F3A C1A F1A 103.5(5) . . ? 
F2A C1A C2A 114.1(4) . . ? 
F3A C1A C2A 112.2(4) . . ? 
F1A C1A C2A 112.1(4) . . ? 
C2A C2 C1 125.6(4) . . ? 
C2A C2 S1 119.1(3) . . ? 
C1 C2 S1 115.2(3) . . ? 
C2 C2A C1A 126.2(4) . . ? 
C2 C2A S1A 119.6(3) . . ? 
C1A C2A S1A 114.2(3) . . ? 
N1 C3 S2 124.7(3) . . ? 
N1 C3 S2A 125.1(3) . . ? 
S2 C3 S2A 110.1(2) . . ? 
C3 N1 C4 121.8(4) . . ? 
C3 N1 C4A 120.8(4) . . ? 
C4 N1 C4A 117.4(4) . . ? 
N1 C4 H4A 109.5 . . ? 
N1 C4 H4B 109.5 . . ? 
H4A C4 H4B 109.5 . . ? 
N1 C4 H4C 109.5 . . ? 
H4A C4 H4C 109.5 . . ? 
H4B C4 H4C 109.5 . . ? 
N1 C4 H4D 109.5 . . ? 
H4A C4 H4D 141.1 . . ? 
H4B C4 H4D 56.3 . . ? 
H4C C4 H4D 56.3 . . ? 
N1 C4 H4E 109.5 . . ? 
H4A C4 H4E 56.3 . . ? 
H4B C4 H4E 141.1 . . ? 
H4C C4 H4E 56.3 . . ? 
H4D C4 H4E 109.5 . . ? 
N1 C4 H4F 109.5 . . ? 
H4A C4 H4F 56.3 . . ? 
H4B C4 H4F 56.3 . . ? 
H4C C4 H4F 141.1 . . ? 
H4D C4 H4F 109.5 . . ? 
H4E C4 H4F 109.5 . . ? 
N1 C4A H4AA 109.5 . . ? 
N1 C4A H4AB 109.5 . . ? 
H4AA C4A H4AB 109.5 . . ? 
N1 C4A H4AC 109.5 . . ? 
H4AA C4A H4AC 109.5 . . ? 
H4AB C4A H4AC 109.5 . . ? 
N1 C4A H4AD 109.5 . . ? 
H4AA C4A H4AD 141.1 . . ? 
H4AB C4A H4AD 56.3 . . ? 
H4AC C4A H4AD 56.3 . . ? 
N1 C4A H4AE 109.5 . . ? 
H4AA C4A H4AE 56.3 . . ? 
H4AB C4A H4AE 141.1 . . ? 
H4AC C4A H4AE 56.3 . . ? 
H4AD C4A H4AE 109.5 . . ? 
N1 C4A H4AF 109.5 . . ? 
H4AA C4A H4AF 56.3 . . ? 
H4AB C4A H4AF 56.3 . . ? 
H4AC C4A H4AF 141.1 . . ? 
H4AD C4A H4AF 109.5 . . ? 
H4AE C4A H4AF 109.5 . . ? 
C6A C5 C6 108.2(4) . . ? 
C6A C5 W1 73.4(2) . . ? 
C6 C5 W1 74.9(3) . . ? 
C6A C5 H5A 125.5 . . ? 
C6 C5 H5A 125.5 . . ? 
W1 C5 H5A 125.5 . . ? 
C7 C6 C5 106.8(4) . . ? 
C7 C6 W1 76.2(3) . . ? 
C5 C6 W1 68.4(2) . . ? 
C7 C6 H6A 126.4 . . ? 
C5 C6 H6A 126.4 . . ? 
W1 C6 H6A 126.4 . . ? 
C7A C6A C5 106.5(4) . . ? 
C7A C6A W1 76.0(2) . . ? 
C5 C6A W1 69.7(2) . . ? 
C7A C6A H6AA 126.4 . . ? 
C5 C6A H6AA 126.4 . . ? 
W1 C6A H6AA 126.4 . . ? 
C7A C7 C6 108.9(4) . . ? 
C7A C7 W1 71.8(2) . . ? 
C6 C7 W1 69.0(2) . . ? 
C7A C7 H7A 125.5 . . ? 
C6 C7 H7A 125.5 . . ? 
W1 C7 H7A 125.5 . . ? 
C7 C7A C6A 109.5(4) . . ? 
C7 C7A W1 74.6(3) . . ? 
C6A C7A W1 68.6(2) . . ? 
C7 C7A H7AA 125.2 . . ? 
C6A C7A H7AA 125.2 . . ? 
W1 C7A H7AA 125.2 . . ? 
 
loop_ 
 _geom_torsion_atom_site_label_1 
 _geom_torsion_atom_site_label_2 
 _geom_torsion_atom_site_label_3 
 _geom_torsion_atom_site_label_4 
 _geom_torsion 
 _geom_torsion_site_symmetry_1 
 _geom_torsion_site_symmetry_2 
 _geom_torsion_site_symmetry_3 
 _geom_torsion_site_symmetry_4 
 _geom_torsion_publ_flag 
C5 W1 S1 C2 87.51(19) . . . . ? 
C6A W1 S1 C2 78.0(2) . . . . ? 
C6 W1 S1 C2 123.1(2) . . . . ? 
S1A W1 S1 C2 -5.49(15) . . . . ? 
C7A W1 S1 C2 129.6(2) . . . . ? 
C7 W1 S1 C2 146.27(19) . . . . ? 
S2 W1 S1 C2 -137.71(15) . . . . ? 
S2A W1 S1 C2 -80.29(15) . . . . ? 
C5 W1 S1A C2A -91.42(19) . . . . ? 
C6A W1 S1A C2A -128.14(18) . . . . ? 
C6 W1 S1A C2A -76.3(2) . . . . ? 
S1 W1 S1A C2A 4.55(15) . . . . ? 
C7A W1 S1A C2A -147.65(19) . . . . ? 
C7 W1 S1A C2A -120.0(3) . . . . ? 
S2 W1 S1A C2A 79.34(15) . . . . ? 
S2A W1 S1A C2A 137.02(15) . . . . ? 
C5 W1 S2 C3 -130.5(2) . . . . ? 
C6A W1 S2 C3 -78.9(2) . . . . ? 
C6 W1 S2 C3 -136.72(18) . . . . ? 
S1A W1 S2 C3 62.57(14) . . . . ? 
S1 W1 S2 C3 136.85(14) . . . . ? 
C7A W1 S2 C3 -78.08(18) . . . . ? 
C7 W1 S2 C3 -107.24(18) . . . . ? 
S2A W1 S2 C3 -0.40(14) . . . . ? 
C5 W1 S2A C3 134.1(2) . . . . ? 
C6A W1 S2A C3 133.68(17) . . . . ? 
C6 W1 S2A C3 82.6(2) . . . . ? 
S1A W1 S2A C3 -136.48(14) . . . . ? 
S1 W1 S2A C3 -62.22(14) . . . . ? 
C7A W1 S2A C3 101.06(18) . . . . ? 
C7 W1 S2A C3 75.07(18) . . . . ? 
S2 W1 S2A C3 0.40(14) . . . . ? 
F1 C1 C2 C2A 75.8(6) . . . . ? 
F3 C1 C2 C2A -161.9(4) . . . . ? 
F2 C1 C2 C2A -44.9(6) . . . . ? 
F1 C1 C2 S1 -99.9(4) . . . . ? 
F3 C1 C2 S1 22.4(5) . . . . ? 
F2 C1 C2 S1 139.4(4) . . . . ? 
W1 S1 C2 C2A 6.0(4) . . . . ? 
W1 S1 C2 C1 -178.0(3) . . . . ? 
C1 C2 C2A C1A -0.1(7) . . . . ? 
S1 C2 C2A C1A 175.5(3) . . . . ? 
C1 C2 C2A S1A -177.8(3) . . . . ? 
S1 C2 C2A S1A -2.3(5) . . . . ? 
F2A C1A C2A C2 87.3(7) . . . . ? 
F3A C1A C2A C2 -150.7(5) . . . . ? 
F1A C1A C2A C2 -34.8(7) . . . . ? 
F2A C1A C2A S1A -94.9(6) . . . . ? 
F3A C1A C2A S1A 27.2(6) . . . . ? 
F1A C1A C2A S1A 143.1(4) . . . . ? 
W1 S1A C2A C2 -2.6(4) . . . . ? 
W1 S1A C2A C1A 179.4(3) . . . . ? 
W1 S2 C3 N1 -176.2(4) . . . . ? 
W1 S2 C3 S2A 0.57(19) . . . . ? 
W1 S2A C3 N1 176.1(4) . . . . ? 
W1 S2A C3 S2 -0.57(19) . . . . ? 
S2 C3 N1 C4 -2.3(6) . . . . ? 
S2A C3 N1 C4 -178.6(3) . . . . ? 
S2 C3 N1 C4A 178.9(3) . . . . ? 
S2A C3 N1 C4A 2.6(6) . . . . ? 
C6 W1 C5 C6A 114.7(4) . . . . ? 
S1A W1 C5 C6A -85.5(2) . . . . ? 
S1 W1 C5 C6A -168.3(2) . . . . ? 
C7A W1 C5 C6A 38.1(2) . . . . ? 
C7 W1 C5 C6A 77.4(3) . . . . ? 
S2 W1 C5 C6A 104.5(3) . . . . ? 
S2A W1 C5 C6A -0.7(3) . . . . ? 
C6A W1 C5 C6 -114.7(4) . . . . ? 
S1A W1 C5 C6 159.8(2) . . . . ? 
S1 W1 C5 C6 77.0(2) . . . . ? 
C7A W1 C5 C6 -76.6(3) . . . . ? 
C7 W1 C5 C6 -37.3(3) . . . . ? 
S2 W1 C5 C6 -10.2(3) . . . . ? 
S2A W1 C5 C6 -115.4(3) . . . . ? 
C6A C5 C6 C7 0.8(5) . . . . ? 
W1 C5 C6 C7 67.2(3) . . . . ? 
C6A C5 C6 W1 -66.4(3) . . . . ? 
C5 W1 C6 C7 -114.7(4) . . . . ? 
C6A W1 C6 C7 -75.9(3) . . . . ? 
S1A W1 C6 C7 -140.5(2) . . . . ? 
S1 W1 C6 C7 141.1(3) . . . . ? 
C7A W1 C6 C7 -34.5(3) . . . . ? 
S2 W1 C6 C7 58.0(3) . . . . ? 
S2A W1 C6 C7 -12.9(4) . . . . ? 
C6A W1 C6 C5 38.8(2) . . . . ? 
S1A W1 C6 C5 -25.9(3) . . . . ? 
S1 W1 C6 C5 -104.2(2) . . . . ? 
C7A W1 C6 C5 80.1(3) . . . . ? 
C7 W1 C6 C5 114.7(4) . . . . ? 
S2 W1 C6 C5 172.7(2) . . . . ? 
S2A W1 C6 C5 101.8(3) . . . . ? 
C6 C5 C6A C7A -0.3(5) . . . . ? 
W1 C5 C6A C7A -67.7(3) . . . . ? 
C6 C5 C6A W1 67.4(3) . . . . ? 
C5 W1 C6A C7A 113.9(4) . . . . ? 
C6 W1 C6A C7A 75.3(3) . . . . ? 
S1A W1 C6A C7A -150.3(3) . . . . ? 
S1 W1 C6A C7A 129.7(2) . . . . ? 
C7 W1 C6A C7A 34.7(3) . . . . ? 
S2 W1 C6A C7A 1.4(3) . . . . ? 
S2A W1 C6A C7A -66.6(3) . . . . ? 
C6 W1 C6A C5 -38.6(3) . . . . ? 
S1A W1 C6A C5 95.9(3) . . . . ? 
S1 W1 C6A C5 15.8(3) . . . . ? 
C7A W1 C6A C5 -113.9(4) . . . . ? 
C7 W1 C6A C5 -79.2(3) . . . . ? 
S2 W1 C6A C5 -112.5(3) . . . . ? 
S2A W1 C6A C5 179.5(3) . . . . ? 
C5 C6 C7 C7A -1.0(5) . . . . ? 
W1 C6 C7 C7A 61.0(3) . . . . ? 
C5 C6 C7 W1 -62.0(3) . . . . ? 
C5 W1 C7 C7A -80.1(3) . . . . ? 
C6A W1 C7 C7A -36.7(3) . . . . ? 
C6 W1 C7 C7A -119.5(4) . . . . ? 
S1A W1 C7 C7A -46.2(4) . . . . ? 
S1 W1 C7 C7A -162.9(2) . . . . ? 
S2 W1 C7 C7A 118.9(3) . . . . ? 
S2A W1 C7 C7A 51.5(3) . . . . ? 
C5 W1 C7 C6 39.3(3) . . . . ? 
C6A W1 C7 C6 82.8(3) . . . . ? 
S1A W1 C7 C6 73.3(4) . . . . ? 
S1 W1 C7 C6 -43.4(3) . . . . ? 
C7A W1 C7 C6 119.5(4) . . . . ? 
S2 W1 C7 C6 -121.6(3) . . . . ? 
S2A W1 C7 C6 171.0(2) . . . . ? 
C6 C7 C7A C6A 0.8(5) . . . . ? 
W1 C7 C7A C6A 60.0(3) . . . . ? 
C6 C7 C7A W1 -59.2(3) . . . . ? 
C5 C6A C7A C7 -0.3(5) . . . . ? 
W1 C6A C7A C7 -63.8(3) . . . . ? 
C5 C6A C7A W1 63.5(3) . . . . ? 
C5 W1 C7A C7 79.1(3) . . . . ? 
C6A W1 C7A C7 118.7(4) . . . . ? 
C6 W1 C7A C7 35.9(3) . . . . ? 
S1A W1 C7A C7 153.9(2) . . . . ? 
S1 W1 C7A C7 28.2(4) . . . . ? 
S2 W1 C7A C7 -60.3(3) . . . . ? 
S2A W1 C7A C7 -129.2(3) . . . . ? 
C5 W1 C7A C6A -39.6(3) . . . . ? 
C6 W1 C7A C6A -82.8(3) . . . . ? 
S1A W1 C7A C6A 35.2(3) . . . . ? 
S1 W1 C7A C6A -90.5(3) . . . . ? 
C7 W1 C7A C6A -118.7(4) . . . . ? 
S2 W1 C7A C6A -179.0(2) . . . . ? 
S2A W1 C7A C6A 112.1(3) . . . . ? 
 
_diffrn_measured_fraction_theta_max    0.989 
_diffrn_reflns_theta_full              27.50 
_diffrn_measured_fraction_theta_full   0.989 
_refine_diff_density_max    1.101 
_refine_diff_density_min   -1.057 
_refine_diff_density_rms    0.126 
